10 10 4

0 395 74 427 103 375 232 453 448 374 
174 0 469 395 271 182 316 293 242 229 
224 110 0 492 229 375 439 464 346 172 
247 185 323 0 329 80 103 255 340 429 
437 500 132 66 0 173 307 167 394 439 
434 394 181 162 117 0 448 360 52 78 
298 222 374 420 420 266 0 450 248 296 
259 209 135 394 145 134 477 0 369 464 
283 486 358 429 419 251 316 287 0 74 
263 147 76 292 151 248 372 71 374 0 

402.27 0 7
402.27 1 2
402.27 2 3
402.27 3 4
402.27 4 0
402.27 5 6
402.27 6 1
402.27 7 2
402.27 8 7
402.27 9 0

